webassembly/ejemplos_dzn/7/folder7_json_22.dzn
TERM = { '.', 's(2)', 'in_1', 'local_1', 'in_2', 'in_4', 'in_3', 's(1)', 's(0)', 's(3)', 'in_0'};
null = '.';
s = 7;
n = 11;
ndeps = 5;
max_registers_sz = 3;
NR = 0;
registers = [| |];
dependencies = [|'i32.load8_s_1', 'i32.store8_2', |'i32.store8_2', 'call[function_index(0)]_3', |'call[function_index(0)]_3', 'i32.store_4', |'i32.store_4', 'i32.store8_5', |'i32.store8_5', 'i32.load8_u_6'|];
GET_ENUM = { GET1, GET2, GET3};
SET_ENUM = { SET1, SET2, SET3};
TEE_ENUM = { TEE1, TEE2, TEE3};
N = 7;
OP = { 'call[function_index(0)]_3', 'i32.load8_s_1', 'i32.store8_2', 'i32.store_4', 'i32.store8_5', 'i32.load8_u_6', 'local.get_0' };
in_ops = [1, 1, 2, 2, 2, 1, 0 ];
out_ops = [2, 1, 0, 0, 0, 1, 1 ];
in1 = ['in_1', 'local_1', 's(0)', 's(2)', 'in_2', 'in_4', '.' ];
in2 = ['.', '.', 'in_0', 's(1)', 'in_3', '.', '.' ];
in3 = ['.', '.', '.', '.', '.', '.', '.' ];
out1 = ['s(2)', 's(0)', '.', '.', '.', 's(3)', 'local_1' ];
out2 = ['s(1)', '.', '.', '.', '.', '.', '.' ];
out3 = ['.', '.', '.', '.', '.', '.', '.' ];
comm = [false, false, false, false, false, false, false ];
gas = [1, 1, 1, 1, 1, 1, 1 ];
sz = [1, 1, 1, 1, 1, 1, 1 ];
stor = [true, false, true, true, true, false, false ];
lb = [ 1, 1, 1, 1, 1, 1, 1 ];
ub = [ 7, 7, 7, 7, 7, 7, 7 ];
startstack = [ 'in_0', 'in_1', 'in_2', 'in_3', 'in_4', null, null, null, null, null, null ];
endstack = [ 's(3)', null, null, null, null, null, null, null, null, null, null ];
